GLPSOL--GLPK LP/MIP Solver 5.0
Parameter(s) specified in the command line:
 --lp ../modeles/10_244.lp --log 10_244.log
Reading problem data from '../modeles/10_244.lp'...
2481 rows, 4900 columns, 17110 non-zeros
2440 integer variables, all of which are binary
7397 lines were read
GLPK Integer Optimizer 5.0
2481 rows, 4900 columns, 17110 non-zeros
2440 integer variables, all of which are binary
Preprocessing...
2420 constraint coefficient(s) were reduced
2481 rows, 4890 columns, 17100 non-zeros
2440 integer variables, all of which are binary
Scaling...
 A: min|aij| =  2.687e-04  max|aij| =  4.000e+00  ratio =  1.488e+04
GM: min|aij| =  9.054e-02  max|aij| =  1.105e+01  ratio =  1.220e+02
EQ: min|aij| =  8.197e-03  max|aij| =  1.000e+00  ratio =  1.220e+02
2N: min|aij| =  7.812e-03  max|aij| =  1.759e+00  ratio =  2.251e+02
Constructing initial basis...
Size of triangular part is 2481
Solving LP relaxation...
GLPK Simplex Optimizer 5.0
2481 rows, 4890 columns, 17100 non-zeros
      0: obj =   2.000000000e+01 inf =   4.950e+01 (21)
    169: obj =   2.569297450e-01 inf =   0.000e+00 (0)
*   530: obj =  -3.161412358e+00 inf =   3.007e-15 (0)
OPTIMAL LP SOLUTION FOUND
Integer optimization begins...
Long-step dual simplex will be used
+   530: mip =     not found yet >=              -inf        (1; 0)
+   757: >>>>>  -3.161412358e+00 >=  -3.161412358e+00 < 0.1% (224; 0)
+   757: mip =  -3.161412358e+00 >=     tree is empty   0.0% (0; 447)
INTEGER OPTIMAL SOLUTION FOUND
Time used:   1.0 secs
Memory used: 7.1 Mb (7477416 bytes)
